/*********************************************
 * OPL 12.7.0.0 Data
 * Author: carlo
 * Creation Date: 10/lug/2020 at 11:16:54
 *********************************************/

utenti =  {"u1", "u2"};
locazioni = {"l1", "l2", "l3", "l4"};
 
costi_attivazione  = [10, 15, 1, 8];
costi_collegamento = [[18, 11, 14, 15], [6, 14, 24, 8]];